24

1 13 21
2 15 11
3 3 10
4 17 15
5 9 18
6 6 14
7 12 21
8 12 18
9 15 10
10 17 7
11 5 23
12 6 7
13 23 23
14 3 11
15 1 22
16 11 11
17 4 3
18 15 10
19 12 20
20 2 20
21 9 2
22 8 23
23 12 17
24 22 8

266
